(set-logic QF_BV)
(declare-fun clk_3 () (_ BitVec 1))
(declare-fun clk_4 () (_ BitVec 1))
(declare-fun clk_5 () (_ BitVec 1))
(declare-fun count1_3 () (_ BitVec 16))
(declare-fun count1_4 () (_ BitVec 16))
(declare-fun count1_5 () (_ BitVec 16))
(declare-fun flashclock1_4 () (_ BitVec 1))
(declare-fun flashclock1_5 () (_ BitVec 1))
(declare-fun rst_3 () (_ BitVec 1))
(declare-fun rst_4 () (_ BitVec 1))
(declare-fun rst_5 () (_ BitVec 1))
(declare-fun sflashclock1_3 () (_ BitVec 1))
(declare-fun sflashclock1_4 () (_ BitVec 1))
(declare-fun sflashclock1_5 () (_ BitVec 1))
(define-fun $e1 () (_ BitVec 16) (_ bv65534 16))
(define-fun $e2 () (_ BitVec 16) (_ bv0 16))
(define-fun $e3 () (_ BitVec 1) (ite (= count1_3 (bvnot $e2)) #b1 #b0))
(define-fun $e4 () (_ BitVec 1) (bvand (bvnot flashclock1_4) (bvnot sflashclock1_4)))
(define-fun $e5 () (_ BitVec 1) (bvand flashclock1_4 sflashclock1_4))
(define-fun $e6 () (_ BitVec 1) (bvand (bvnot $e4) (bvnot $e5)))
(define-fun $e7 () (_ BitVec 1) (bvand (bvnot rst_3) (bvnot rst_4)))
(define-fun $e8 () (_ BitVec 1) (bvand rst_3 rst_4))
(define-fun $e9 () (_ BitVec 1) (bvand (bvnot $e7) (bvnot $e8)))
(define-fun $e10 () (_ BitVec 16) (bvmul count1_4 (bvnot $e2)))
(define-fun $e11 () (_ BitVec 16) (bvadd count1_3 $e10))
(define-fun $e12 () (_ BitVec 1) (ite (= $e2 $e11) #b1 #b0))
(define-fun $e13 () (_ BitVec 1) (ite (= count1_4 (bvnot $e2)) #b1 #b0))
(define-fun $e14 () (_ BitVec 1) (bvand (bvnot flashclock1_5) (bvnot sflashclock1_5)))
(define-fun $e15 () (_ BitVec 1) (bvand flashclock1_5 sflashclock1_5))
(define-fun $e16 () (_ BitVec 1) (bvand (bvnot $e14) (bvnot $e15)))
(define-fun $e17 () (_ BitVec 1) (bvand (bvnot rst_4) (bvnot rst_5)))
(define-fun $e18 () (_ BitVec 1) (bvand rst_4 rst_5))
(define-fun $e19 () (_ BitVec 1) (bvand (bvnot $e17) (bvnot $e18)))
(define-fun $e20 () (_ BitVec 16) (bvmul count1_5 (bvnot $e2)))
(define-fun $e21 () (_ BitVec 16) (bvadd count1_4 $e20))
(define-fun $e22 () (_ BitVec 1) (ite (= $e2 $e21) #b1 #b0))
(define-fun $e23 () (_ BitVec 1) (ite (= count1_5 $e2) #b1 #b0))
(define-fun $e24 () (_ BitVec 1) (bvand (bvnot sflashclock1_5) $e23))
(define-fun $e25 () (_ BitVec 1) (bvand (bvnot sflashclock1_5) $e22))
(define-fun $e26 () (_ BitVec 1) (bvand sflashclock1_5 $e23))
(define-fun $e27 () (_ BitVec 1) (bvand (bvnot $e22) (bvnot $e26)))
(define-fun $e28 () (_ BitVec 1) (bvand (bvnot $e25) (bvnot $e27)))
(define-fun $e29 () (_ BitVec 1) (ite (= (bvnot $e2) $e21) #b1 #b0))
(define-fun $e30 () (_ BitVec 1) (bvand sflashclock1_5 $e29))
(define-fun $e31 () (_ BitVec 1) (bvand (bvnot $e22) (bvnot $e30)))
(define-fun $e32 () (_ BitVec 1) (bvand (bvnot $e25) (bvnot $e31)))
(define-fun $e33 () (_ BitVec 1) (bvand (bvnot $e16) $e32))
(define-fun $e34 () (_ BitVec 1) (ite (= (bvnot $e1) $e20) #b1 #b0))
(define-fun $e35 () (_ BitVec 1) (bvand (bvnot sflashclock1_5) $e34))
(define-fun $e36 () (_ BitVec 1) (bvand (bvnot $e26) (bvnot $e34)))
(define-fun $e37 () (_ BitVec 1) (bvand (bvnot $e35) (bvnot $e36)))
(define-fun $e38 () (_ BitVec 1) (bvand $e19 (bvnot $e37)))
(define-fun $e39 () (_ BitVec 1) (bvand (bvnot $e24) (bvnot $e34)))
(define-fun $e40 () (_ BitVec 1) (bvand (bvnot $e35) (bvnot $e39)))
(define-fun $e41 () (_ BitVec 1) (bvand (bvnot $e19) (bvnot $e40)))
(define-fun $e42 () (_ BitVec 1) (bvand (bvnot $e38) (bvnot $e41)))
(define-fun $e43 () (_ BitVec 1) (bvand (bvnot $e16) $e42))
(define-fun $e44 () (_ BitVec 1) (bvand $e13 (bvnot $e43)))
(define-fun $e45 () (_ BitVec 1) (bvand (bvnot $e13) (bvnot $e33)))
(define-fun $e46 () (_ BitVec 1) (bvand (bvnot $e44) (bvnot $e45)))
(define-fun $e47 () (_ BitVec 1) (bvand (bvnot clk_4) (bvnot clk_5)))
(define-fun $e48 () (_ BitVec 1) (bvand clk_4 clk_5))
(define-fun $e49 () (_ BitVec 1) (bvand (bvnot $e47) (bvnot $e48)))
(define-fun $e50 () (_ BitVec 1) (bvand sflashclock1_5 $e22))
(define-fun $e51 () (_ BitVec 1) (bvand $e19 (bvnot $e50)))
(define-fun $e52 () (_ BitVec 1) (bvand $e49 (bvnot $e50)))
(define-fun $e53 () (_ BitVec 1) (bvand (bvnot $e19) (bvnot $e32)))
(define-fun $e54 () (_ BitVec 1) (bvand (bvnot $e51) (bvnot $e53)))
(define-fun $e55 () (_ BitVec 1) (bvand (bvnot $e49) (bvnot $e54)))
(define-fun $e56 () (_ BitVec 1) (bvand (bvnot $e52) (bvnot $e55)))
(define-fun $e57 () (_ BitVec 1) (bvand (bvnot $e16) $e56))
(define-fun $e58 () (_ BitVec 1) (bvand sflashclock1_5 $e34))
(define-fun $e59 () (_ BitVec 1) (bvand $e49 (bvnot $e58)))
(define-fun $e60 () (_ BitVec 1) (bvand $e19 (bvnot $e58)))
(define-fun $e61 () (_ BitVec 1) (bvand (bvnot $e41) (bvnot $e60)))
(define-fun $e62 () (_ BitVec 1) (bvand (bvnot $e49) (bvnot $e61)))
(define-fun $e63 () (_ BitVec 1) (bvand (bvnot $e59) (bvnot $e62)))
(define-fun $e64 () (_ BitVec 1) (bvand (bvnot $e16) $e63))
(define-fun $e65 () (_ BitVec 1) (bvand $e13 (bvnot $e64)))
(define-fun $e66 () (_ BitVec 1) (bvand (bvnot $e13) (bvnot $e57)))
(define-fun $e67 () (_ BitVec 1) (bvand (bvnot $e65) (bvnot $e66)))
(define-fun $e68 () (_ BitVec 1) (bvand clk_4 (bvnot $e67)))
(define-fun $e69 () (_ BitVec 1) (bvand (bvnot clk_4) (bvnot $e46)))
(define-fun $e70 () (_ BitVec 1) (bvand (bvnot $e68) (bvnot $e69)))
(define-fun $e71 () (_ BitVec 1) (bvand (bvnot $e22) (bvnot $e23)))
(define-fun $e72 () (_ BitVec 1) (bvand (bvnot $e25) (bvnot $e71)))
(define-fun $e73 () (_ BitVec 1) (bvand rst_5 (bvnot $e28)))
(define-fun $e74 () (_ BitVec 1) (bvand (bvnot rst_5) (bvnot $e72)))
(define-fun $e75 () (_ BitVec 1) (bvand (bvnot $e73) (bvnot $e74)))
(define-fun $e76 () (_ BitVec 1) (bvand (bvnot $e19) (bvnot $e75)))
(define-fun $e77 () (_ BitVec 1) (bvand $e19 (bvnot $e40)))
(define-fun $e78 () (_ BitVec 1) (bvand (bvnot $e76) (bvnot $e77)))
(define-fun $e79 () (_ BitVec 1) (bvand $e49 (bvnot $e78)))
(define-fun $e80 () (_ BitVec 1) (bvand (bvnot $e19) (bvnot $e37)))
(define-fun $e81 () (_ BitVec 1) (bvand (bvnot $e77) (bvnot $e80)))
(define-fun $e82 () (_ BitVec 1) (bvand (bvnot $e49) (bvnot $e81)))
(define-fun $e83 () (_ BitVec 1) (bvand (bvnot $e79) (bvnot $e82)))
(define-fun $e84 () (_ BitVec 1) (bvand (bvnot $e16) $e83))
(define-fun $e85 () (_ BitVec 1) (bvand $e13 (bvnot $e84)))
(define-fun $e86 () (_ BitVec 1) (bvand (bvnot $e45) (bvnot $e85)))
(define-fun $e87 () (_ BitVec 1) (bvand (bvnot $e19) (bvnot $e50)))
(define-fun $e88 () (_ BitVec 1) (bvand $e19 (bvnot $e32)))
(define-fun $e89 () (_ BitVec 1) (bvand (bvnot $e87) (bvnot $e88)))
(define-fun $e90 () (_ BitVec 1) (bvand (bvnot $e49) (bvnot $e89)))
(define-fun $e91 () (_ BitVec 1) (bvand (bvnot $e52) (bvnot $e90)))
(define-fun $e92 () (_ BitVec 1) (bvand (bvnot $e16) $e91))
(define-fun $e93 () (_ BitVec 1) (bvand (bvnot $e19) (bvnot $e58)))
(define-fun $e94 () (_ BitVec 1) (bvand (bvnot $e77) (bvnot $e93)))
(define-fun $e95 () (_ BitVec 1) (bvand (bvnot $e49) (bvnot $e94)))
(define-fun $e96 () (_ BitVec 1) (bvand (bvnot $e59) (bvnot $e95)))
(define-fun $e97 () (_ BitVec 1) (bvand (bvnot $e16) $e96))
(define-fun $e98 () (_ BitVec 1) (bvand $e13 (bvnot $e97)))
(define-fun $e99 () (_ BitVec 1) (bvand (bvnot $e13) (bvnot $e92)))
(define-fun $e100 () (_ BitVec 1) (bvand (bvnot $e98) (bvnot $e99)))
(define-fun $e101 () (_ BitVec 1) (bvand clk_4 (bvnot $e100)))
(define-fun $e102 () (_ BitVec 1) (bvand (bvnot clk_4) (bvnot $e86)))
(define-fun $e103 () (_ BitVec 1) (bvand (bvnot $e101) (bvnot $e102)))
(define-fun $e104 () (_ BitVec 1) (bvand rst_4 (bvnot $e103)))
(define-fun $e105 () (_ BitVec 1) (bvand (bvnot rst_4) (bvnot $e70)))
(define-fun $e106 () (_ BitVec 1) (bvand (bvnot $e104) (bvnot $e105)))
(define-fun $e107 () (_ BitVec 1) (bvand sflashclock1_4 $e106))
(define-fun $e108 () (_ BitVec 1) (ite (= count1_4 $e2) #b1 #b0))
(define-fun $e109 () (_ BitVec 1) (bvand (bvnot $e22) (bvnot $e29)))
(define-fun $e110 () (_ BitVec 1) (bvand (bvnot $e25) (bvnot $e109)))
(define-fun $e111 () (_ BitVec 1) (bvand (bvnot $e19) (bvnot $e110)))
(define-fun $e112 () (_ BitVec 1) (bvand (bvnot $e88) (bvnot $e111)))
(define-fun $e113 () (_ BitVec 1) (bvand (bvnot sflashclock1_5) $e29))
(define-fun $e114 () (_ BitVec 1) (bvand (bvnot $e22) (bvnot $e113)))
(define-fun $e115 () (_ BitVec 1) (bvand (bvnot $e19) $e114))
(define-fun $e116 () (_ BitVec 1) (bvand (bvnot $e88) (bvnot $e115)))
(define-fun $e117 () (_ BitVec 1) (bvand $e49 (bvnot $e112)))
(define-fun $e118 () (_ BitVec 1) (bvand (bvnot $e49) (bvnot $e116)))
(define-fun $e119 () (_ BitVec 1) (bvand (bvnot $e117) (bvnot $e118)))
(define-fun $e120 () (_ BitVec 1) (bvand (bvnot $e16) $e119))
(define-fun $e121 () (_ BitVec 1) (bvand rst_5 (bvnot $e37)))
(define-fun $e122 () (_ BitVec 1) (bvand (bvnot $e23) (bvnot $e34)))
(define-fun $e123 () (_ BitVec 1) (bvand (bvnot $e35) (bvnot $e122)))
(define-fun $e124 () (_ BitVec 1) (bvand (bvnot rst_5) (bvnot $e123)))
(define-fun $e125 () (_ BitVec 1) (bvand (bvnot $e121) (bvnot $e124)))
(define-fun $e126 () (_ BitVec 1) (bvand $e49 (bvnot $e125)))
(define-fun $e127 () (_ BitVec 1) (bvand (bvnot $e19) $e36))
(define-fun $e128 () (_ BitVec 1) (bvand (bvnot $e38) (bvnot $e127)))
(define-fun $e129 () (_ BitVec 1) (bvand (bvnot $e49) (bvnot $e128)))
(define-fun $e130 () (_ BitVec 1) (bvand (bvnot $e126) (bvnot $e129)))
(define-fun $e131 () (_ BitVec 1) (bvand (bvnot $e16) $e130))
(define-fun $e132 () (_ BitVec 1) (bvand $e13 (bvnot $e131)))
(define-fun $e133 () (_ BitVec 1) (bvand (bvnot $e13) (bvnot $e120)))
(define-fun $e134 () (_ BitVec 1) (bvand (bvnot $e132) (bvnot $e133)))
(define-fun $e135 () (_ BitVec 1) (bvand (bvnot $e19) (bvnot $e22)))
(define-fun $e136 () (_ BitVec 1) (bvand (bvnot $e51) (bvnot $e135)))
(define-fun $e137 () (_ BitVec 1) (bvand $e49 (bvnot $e136)))
(define-fun $e138 () (_ BitVec 1) (bvand (bvnot $e19) $e109))
(define-fun $e139 () (_ BitVec 1) (bvand (bvnot $e51) (bvnot $e138)))
(define-fun $e140 () (_ BitVec 1) (bvand (bvnot $e49) (bvnot $e139)))
(define-fun $e141 () (_ BitVec 1) (bvand (bvnot $e137) (bvnot $e140)))
(define-fun $e142 () (_ BitVec 1) (bvand (bvnot $e16) $e141))
(define-fun $e143 () (_ BitVec 1) (bvand (bvnot $e19) (bvnot $e34)))
(define-fun $e144 () (_ BitVec 1) (bvand (bvnot $e60) (bvnot $e143)))
(define-fun $e145 () (_ BitVec 1) (bvand $e49 (bvnot $e144)))
(define-fun $e146 () (_ BitVec 1) (bvand (bvnot $e19) $e122))
(define-fun $e147 () (_ BitVec 1) (bvand (bvnot $e60) (bvnot $e146)))
(define-fun $e148 () (_ BitVec 1) (bvand (bvnot $e49) (bvnot $e147)))
(define-fun $e149 () (_ BitVec 1) (bvand (bvnot $e145) (bvnot $e148)))
(define-fun $e150 () (_ BitVec 1) (bvand (bvnot $e16) $e149))
(define-fun $e151 () (_ BitVec 1) (bvand $e13 (bvnot $e150)))
(define-fun $e152 () (_ BitVec 1) (bvand (bvnot $e13) (bvnot $e142)))
(define-fun $e153 () (_ BitVec 1) (bvand (bvnot $e151) (bvnot $e152)))
(define-fun $e154 () (_ BitVec 1) (bvand clk_4 (bvnot $e153)))
(define-fun $e155 () (_ BitVec 1) (bvand (bvnot clk_4) (bvnot $e134)))
(define-fun $e156 () (_ BitVec 1) (bvand (bvnot $e154) (bvnot $e155)))
(define-fun $e157 () (_ BitVec 1) (bvand (bvnot $e25) (bvnot $e114)))
(define-fun $e158 () (_ BitVec 1) (bvand $e19 (bvnot $e157)))
(define-fun $e159 () (_ BitVec 1) (bvand (bvnot $e53) (bvnot $e158)))
(define-fun $e160 () (_ BitVec 1) (bvand $e19 $e114))
(define-fun $e161 () (_ BitVec 1) (bvand (bvnot $e19) $e31))
(define-fun $e162 () (_ BitVec 1) (bvand (bvnot $e160) (bvnot $e161)))
(define-fun $e163 () (_ BitVec 1) (bvand $e49 (bvnot $e159)))
(define-fun $e164 () (_ BitVec 1) (bvand (bvnot $e49) (bvnot $e162)))
(define-fun $e165 () (_ BitVec 1) (bvand (bvnot $e163) (bvnot $e164)))
(define-fun $e166 () (_ BitVec 1) (bvand (bvnot $e16) $e165))
(define-fun $e167 () (_ BitVec 1) (bvand (bvnot $e37) $e49))
(define-fun $e168 () (_ BitVec 1) (bvand $e36 (bvnot $e49)))
(define-fun $e169 () (_ BitVec 1) (bvand (bvnot $e167) (bvnot $e168)))
(define-fun $e170 () (_ BitVec 1) (bvand (bvnot $e16) $e169))
(define-fun $e171 () (_ BitVec 1) (bvand $e13 (bvnot $e170)))
(define-fun $e172 () (_ BitVec 1) (bvand (bvnot $e13) (bvnot $e166)))
(define-fun $e173 () (_ BitVec 1) (bvand (bvnot $e171) (bvnot $e172)))
(define-fun $e174 () (_ BitVec 1) (bvand $e19 (bvnot $e22)))
(define-fun $e175 () (_ BitVec 1) (bvand (bvnot $e87) (bvnot $e174)))
(define-fun $e176 () (_ BitVec 1) (bvand $e49 (bvnot $e175)))
(define-fun $e177 () (_ BitVec 1) (bvand (bvnot $e50) (bvnot $e109)))
(define-fun $e178 () (_ BitVec 1) (bvand $e19 (bvnot $e177)))
(define-fun $e179 () (_ BitVec 1) (bvand (bvnot $e135) (bvnot $e178)))
(define-fun $e180 () (_ BitVec 1) (bvand (bvnot $e49) (bvnot $e179)))
(define-fun $e181 () (_ BitVec 1) (bvand (bvnot $e176) (bvnot $e180)))
(define-fun $e182 () (_ BitVec 1) (bvand (bvnot $e16) $e181))
(define-fun $e183 () (_ BitVec 1) (bvand $e19 (bvnot $e34)))
(define-fun $e184 () (_ BitVec 1) (bvand (bvnot $e93) (bvnot $e183)))
(define-fun $e185 () (_ BitVec 1) (bvand $e49 (bvnot $e184)))
(define-fun $e186 () (_ BitVec 1) (bvand (bvnot $e58) (bvnot $e122)))
(define-fun $e187 () (_ BitVec 1) (bvand $e19 (bvnot $e186)))
(define-fun $e188 () (_ BitVec 1) (bvand (bvnot $e143) (bvnot $e187)))
(define-fun $e189 () (_ BitVec 1) (bvand (bvnot $e49) (bvnot $e188)))
(define-fun $e190 () (_ BitVec 1) (bvand (bvnot $e185) (bvnot $e189)))
(define-fun $e191 () (_ BitVec 1) (bvand (bvnot $e16) $e190))
(define-fun $e192 () (_ BitVec 1) (bvand $e13 (bvnot $e191)))
(define-fun $e193 () (_ BitVec 1) (bvand (bvnot $e13) (bvnot $e182)))
(define-fun $e194 () (_ BitVec 1) (bvand (bvnot $e192) (bvnot $e193)))
(define-fun $e195 () (_ BitVec 1) (bvand clk_4 (bvnot $e194)))
(define-fun $e196 () (_ BitVec 1) (bvand (bvnot clk_4) (bvnot $e173)))
(define-fun $e197 () (_ BitVec 1) (bvand (bvnot $e195) (bvnot $e196)))
(define-fun $e198 () (_ BitVec 1) (bvand rst_4 (bvnot $e197)))
(define-fun $e199 () (_ BitVec 1) (bvand (bvnot rst_4) (bvnot $e156)))
(define-fun $e200 () (_ BitVec 1) (bvand (bvnot $e198) (bvnot $e199)))
(define-fun $e201 () (_ BitVec 1) (bvand (bvnot sflashclock1_4) $e200))
(define-fun $e202 () (_ BitVec 1) (bvand clk_4 (bvnot $e182)))
(define-fun $e203 () (_ BitVec 1) (bvand (bvnot clk_4) (bvnot $e166)))
(define-fun $e204 () (_ BitVec 1) (bvand (bvnot $e202) (bvnot $e203)))
(define-fun $e205 () (_ BitVec 1) (bvand rst_4 (bvnot $e204)))
(define-fun $e206 () (_ BitVec 1) (bvand clk_4 (bvnot $e142)))
(define-fun $e207 () (_ BitVec 1) (bvand (bvnot clk_4) (bvnot $e120)))
(define-fun $e208 () (_ BitVec 1) (bvand (bvnot $e206) (bvnot $e207)))
(define-fun $e209 () (_ BitVec 1) (bvand (bvnot rst_4) (bvnot $e208)))
(define-fun $e210 () (_ BitVec 1) (bvand (bvnot $e205) (bvnot $e209)))
(define-fun $e211 () (_ BitVec 1) (bvand (bvnot sflashclock1_4) $e210))
(define-fun $e212 () (_ BitVec 1) (bvand $e108 $e211))
(define-fun $e213 () (_ BitVec 1) (bvand $e12 (bvnot $e107)))
(define-fun $e214 () (_ BitVec 1) (bvand (bvnot $e12) (bvnot $e212)))
(define-fun $e215 () (_ BitVec 1) (bvand (bvnot $e213) (bvnot $e214)))
(define-fun $e216 () (_ BitVec 1) (bvand clk_4 (bvnot $e92)))
(define-fun $e217 () (_ BitVec 1) (bvand clk_4 (bvnot $e57)))
(define-fun $e218 () (_ BitVec 1) (ite (= $e2 $e20) #b1 #b0))
(define-fun $e219 () (_ BitVec 1) (bvand (bvnot sflashclock1_5) $e218))
(define-fun $e220 () (_ BitVec 1) (bvand (bvnot $e30) (bvnot $e218)))
(define-fun $e221 () (_ BitVec 1) (bvand (bvnot $e219) (bvnot $e220)))
(define-fun $e222 () (_ BitVec 1) (bvand (bvnot $e16) $e221))
(define-fun $e223 () (_ BitVec 1) (bvand (bvnot clk_4) (bvnot $e222)))
(define-fun $e224 () (_ BitVec 1) (bvand (bvnot $e216) (bvnot $e223)))
(define-fun $e225 () (_ BitVec 1) (bvand rst_4 (bvnot $e224)))
(define-fun $e226 () (_ BitVec 1) (bvand (bvnot $e217) (bvnot $e223)))
(define-fun $e227 () (_ BitVec 1) (bvand (bvnot rst_4) (bvnot $e226)))
(define-fun $e228 () (_ BitVec 1) (bvand (bvnot $e225) (bvnot $e227)))
(define-fun $e229 () (_ BitVec 1) (bvand sflashclock1_4 $e228))
(define-fun $e230 () (_ BitVec 1) (bvand $e108 $e229))
(define-fun $e231 () (_ BitVec 1) (bvand (bvnot $e12) (bvnot $e230)))
(define-fun $e232 () (_ BitVec 1) (bvand (bvnot $e213) (bvnot $e231)))
(define-fun $e233 () (_ BitVec 1) (bvand $e9 (bvnot $e232)))
(define-fun $e234 () (_ BitVec 1) (bvand (bvnot $e9) (bvnot $e215)))
(define-fun $e235 () (_ BitVec 1) (bvand (bvnot clk_3) (bvnot clk_4)))
(define-fun $e236 () (_ BitVec 1) (bvand clk_3 clk_4))
(define-fun $e237 () (_ BitVec 1) (bvand (bvnot $e235) (bvnot $e236)))
(define-fun $e238 () (_ BitVec 1) (bvand sflashclock1_4 (bvnot $e106)))
(define-fun $e239 () (_ BitVec 1) (bvand (bvnot sflashclock1_4) (bvnot $e200)))
(define-fun $e240 () (_ BitVec 1) (bvand (bvnot $e238) (bvnot $e239)))
(define-fun $e241 () (_ BitVec 1) (bvand (bvnot clk_4) (bvnot $e33)))
(define-fun $e242 () (_ BitVec 1) (bvand (bvnot $e216) (bvnot $e241)))
(define-fun $e243 () (_ BitVec 1) (bvand rst_4 (bvnot $e242)))
(define-fun $e244 () (_ BitVec 1) (bvand (bvnot $e217) (bvnot $e241)))
(define-fun $e245 () (_ BitVec 1) (bvand (bvnot rst_4) (bvnot $e244)))
(define-fun $e246 () (_ BitVec 1) (bvand (bvnot $e243) (bvnot $e245)))
(define-fun $e247 () (_ BitVec 1) (bvand sflashclock1_4 (bvnot $e246)))
(define-fun $e248 () (_ BitVec 1) (bvand (bvnot sflashclock1_4) (bvnot $e210)))
(define-fun $e249 () (_ BitVec 1) (bvand (bvnot $e247) (bvnot $e248)))
(define-fun $e250 () (_ BitVec 1) (bvand $e108 $e249))
(define-fun $e251 () (_ BitVec 1) (bvand (bvnot $e12) (bvnot $e250)))
(define-fun $e252 () (_ BitVec 1) (bvand (bvnot $e213) (bvnot $e251)))
(define-fun $e253 () (_ BitVec 1) (bvand rst_4 (bvnot $e232)))
(define-fun $e254 () (_ BitVec 1) (bvand (bvnot rst_4) (bvnot $e252)))
(define-fun $e255 () (_ BitVec 1) (bvand (bvnot $e253) (bvnot $e254)))
(define-fun $e256 () (_ BitVec 1) (bvand $e12 (bvnot $e240)))
(define-fun $e257 () (_ BitVec 1) (bvand (bvnot $e231) (bvnot $e256)))
(define-fun $e258 () (_ BitVec 1) (bvand (bvnot $e9) (bvnot $e257)))
(define-fun $e259 () (_ BitVec 1) (bvand (bvnot $e233) (bvnot $e258)))
(define-fun $e260 () (_ BitVec 1) (bvand $e237 (bvnot $e255)))
(define-fun $e261 () (_ BitVec 1) (bvand (bvnot $e237) (bvnot $e259)))
(define-fun $e262 () (_ BitVec 1) (bvand (bvnot $e260) (bvnot $e261)))
(define-fun $e263 () (_ BitVec 1) (bvand (bvnot $e6) $e262))
(define-fun $e264 () (_ BitVec 1) (bvand (bvnot sflashclock1_3) (bvnot $e263)))
(define-fun $e265 () (_ BitVec 1) (ite (= (bvnot $e2) $e11) #b1 #b0))
(define-fun $e266 () (_ BitVec 1) (bvand $e107 $e265))
(define-fun $e267 () (_ BitVec 1) (bvand (bvnot $e12) (bvnot $e266)))
(define-fun $e268 () (_ BitVec 1) (bvand (bvnot $e213) (bvnot $e267)))
(define-fun $e269 () (_ BitVec 1) (bvand (bvnot $e6) $e268))
(define-fun $e270 () (_ BitVec 1) (bvand $e240 $e265))
(define-fun $e271 () (_ BitVec 1) (bvand (bvnot $e12) (bvnot $e270)))
(define-fun $e272 () (_ BitVec 1) (bvand (bvnot $e213) (bvnot $e271)))
(define-fun $e273 () (_ BitVec 1) (bvand $e9 (bvnot $e268)))
(define-fun $e274 () (_ BitVec 1) (bvand (bvnot $e9) (bvnot $e272)))
(define-fun $e275 () (_ BitVec 1) (bvand (bvnot $e273) (bvnot $e274)))
(define-fun $e276 () (_ BitVec 1) (bvand $e201 $e265))
(define-fun $e277 () (_ BitVec 1) (bvand (bvnot $e12) (bvnot $e276)))
(define-fun $e278 () (_ BitVec 1) (bvand (bvnot $e256) (bvnot $e277)))
(define-fun $e279 () (_ BitVec 1) (bvand (bvnot $e9) (bvnot $e278)))
(define-fun $e280 () (_ BitVec 1) (bvand (bvnot $e273) (bvnot $e279)))
(define-fun $e281 () (_ BitVec 1) (bvand $e237 (bvnot $e275)))
(define-fun $e282 () (_ BitVec 1) (bvand (bvnot $e237) (bvnot $e280)))
(define-fun $e283 () (_ BitVec 1) (bvand (bvnot $e281) (bvnot $e282)))
(define-fun $e284 () (_ BitVec 1) (bvand (bvnot $e6) $e283))
(define-fun $e285 () (_ BitVec 1) (bvand sflashclock1_3 (bvnot $e269)))
(define-fun $e286 () (_ BitVec 1) (bvand (bvnot sflashclock1_3) (bvnot $e284)))
(define-fun $e287 () (_ BitVec 1) (bvand (bvnot $e285) (bvnot $e286)))
(define-fun $e288 () (_ BitVec 1) (ite (= (bvnot $e1) $e10) #b1 #b0))
(define-fun $e289 () (_ BitVec 1) (bvand (bvnot $e107) $e288))
(define-fun $e290 () (_ BitVec 1) (bvand (bvnot $e230) (bvnot $e288)))
(define-fun $e291 () (_ BitVec 1) (bvand (bvnot $e289) (bvnot $e290)))
(define-fun $e292 () (_ BitVec 1) (bvand $e9 (bvnot $e291)))
(define-fun $e293 () (_ BitVec 1) (bvand (bvnot $e212) (bvnot $e288)))
(define-fun $e294 () (_ BitVec 1) (bvand (bvnot $e289) (bvnot $e293)))
(define-fun $e295 () (_ BitVec 1) (bvand (bvnot $e9) (bvnot $e294)))
(define-fun $e296 () (_ BitVec 1) (bvand (bvnot $e292) (bvnot $e295)))
(define-fun $e297 () (_ BitVec 1) (bvand (bvnot $e6) $e296))
(define-fun $e298 () (_ BitVec 1) (bvand sflashclock1_3 (bvnot $e297)))
(define-fun $e299 () (_ BitVec 1) (bvand (bvnot $e264) (bvnot $e298)))
(define-fun $e300 () (_ BitVec 1) (bvand $e3 (bvnot $e299)))
(define-fun $e301 () (_ BitVec 1) (bvand (bvnot $e3) (bvnot $e287)))
(define-fun $e302 () (_ BitVec 1) (bvand (bvnot $e300) (bvnot $e301)))
(define-fun $e303 () (_ BitVec 1) (bvand $e12 $e240))
(define-fun $e304 () (_ BitVec 1) (bvand $e12 $e107))
(define-fun $e305 () (_ BitVec 1) (bvand $e9 (bvnot $e304)))
(define-fun $e306 () (_ BitVec 1) (bvand (bvnot $e9) (bvnot $e303)))
(define-fun $e307 () (_ BitVec 1) (bvand (bvnot $e305) (bvnot $e306)))
(define-fun $e308 () (_ BitVec 1) (bvand (bvnot $e251) (bvnot $e256)))
(define-fun $e309 () (_ BitVec 1) (bvand (bvnot $e9) (bvnot $e308)))
(define-fun $e310 () (_ BitVec 1) (bvand $e237 (bvnot $e307)))
(define-fun $e311 () (_ BitVec 1) (bvand $e237 (bvnot $e304)))
(define-fun $e312 () (_ BitVec 1) (bvand (bvnot $e256) (bvnot $e271)))
(define-fun $e313 () (_ BitVec 1) (bvand (bvnot $e9) (bvnot $e312)))
(define-fun $e314 () (_ BitVec 1) (bvand (bvnot $e305) (bvnot $e313)))
(define-fun $e315 () (_ BitVec 1) (bvand (bvnot $e237) (bvnot $e314)))
(define-fun $e316 () (_ BitVec 1) (bvand (bvnot $e310) (bvnot $e315)))
(define-fun $e317 () (_ BitVec 1) (bvand (bvnot $e6) $e316))
(define-fun $e318 () (_ BitVec 1) (bvand (bvnot $e9) (bvnot $e268)))
(define-fun $e319 () (_ BitVec 1) (bvand (bvnot $e305) (bvnot $e318)))
(define-fun $e320 () (_ BitVec 1) (bvand (bvnot $e237) (bvnot $e319)))
(define-fun $e321 () (_ BitVec 1) (bvand (bvnot $e311) (bvnot $e320)))
(define-fun $e322 () (_ BitVec 1) (bvand (bvnot $e6) $e321))
(define-fun $e323 () (_ BitVec 1) (bvand sflashclock1_3 (bvnot $e322)))
(define-fun $e324 () (_ BitVec 1) (bvand (bvnot sflashclock1_3) (bvnot $e317)))
(define-fun $e325 () (_ BitVec 1) (bvand (bvnot $e323) (bvnot $e324)))
(define-fun $e326 () (_ BitVec 1) (bvand $e107 $e288))
(define-fun $e327 () (_ BitVec 1) (bvand $e237 (bvnot $e326)))
(define-fun $e328 () (_ BitVec 1) (bvand $e9 (bvnot $e326)))
(define-fun $e329 () (_ BitVec 1) (bvand (bvnot $e234) (bvnot $e328)))
(define-fun $e330 () (_ BitVec 1) (bvand (bvnot $e237) (bvnot $e329)))
(define-fun $e331 () (_ BitVec 1) (bvand (bvnot $e327) (bvnot $e330)))
(define-fun $e332 () (_ BitVec 1) (bvand (bvnot $e6) $e331))
(define-fun $e333 () (_ BitVec 1) (bvand sflashclock1_3 (bvnot $e332)))
(define-fun $e334 () (_ BitVec 1) (bvand $e240 $e288))
(define-fun $e335 () (_ BitVec 1) (bvand (bvnot $e9) (bvnot $e334)))
(define-fun $e336 () (_ BitVec 1) (bvand (bvnot $e328) (bvnot $e335)))
(define-fun $e337 () (_ BitVec 1) (bvand $e237 (bvnot $e336)))
(define-fun $e338 () (_ BitVec 1) (bvand (bvnot $e309) (bvnot $e328)))
(define-fun $e339 () (_ BitVec 1) (bvand (bvnot $e237) (bvnot $e338)))
(define-fun $e340 () (_ BitVec 1) (bvand (bvnot $e337) (bvnot $e339)))
(define-fun $e341 () (_ BitVec 1) (bvand (bvnot $e6) $e340))
(define-fun $e342 () (_ BitVec 1) (bvand (bvnot sflashclock1_3) (bvnot $e341)))
(define-fun $e343 () (_ BitVec 1) (bvand (bvnot $e333) (bvnot $e342)))
(define-fun $e344 () (_ BitVec 1) (bvand $e3 (bvnot $e343)))
(define-fun $e345 () (_ BitVec 1) (bvand (bvnot $e3) (bvnot $e325)))
(define-fun $e346 () (_ BitVec 1) (bvand (bvnot $e344) (bvnot $e345)))
(define-fun $e347 () (_ BitVec 1) (bvand clk_3 (bvnot $e346)))
(define-fun $e348 () (_ BitVec 1) (bvand (bvnot clk_3) (bvnot $e302)))
(define-fun $e349 () (_ BitVec 1) (bvand (bvnot $e347) (bvnot $e348)))
(define-fun $e350 () (_ BitVec 1) (bvand $e9 (bvnot $e215)))
(define-fun $e351 () (_ BitVec 1) (bvand (bvnot $e9) (bvnot $e255)))
(define-fun $e352 () (_ BitVec 1) (bvand (bvnot $e350) (bvnot $e351)))
(define-fun $e353 () (_ BitVec 1) (bvand (bvnot $e9) (bvnot $e232)))
(define-fun $e354 () (_ BitVec 1) (bvand (bvnot $e350) (bvnot $e353)))
(define-fun $e355 () (_ BitVec 1) (bvand $e237 (bvnot $e352)))
(define-fun $e356 () (_ BitVec 1) (bvand (bvnot $e237) (bvnot $e354)))
(define-fun $e357 () (_ BitVec 1) (bvand (bvnot $e355) (bvnot $e356)))
(define-fun $e358 () (_ BitVec 1) (bvand (bvnot $e6) $e357))
(define-fun $e359 () (_ BitVec 1) (bvand sflashclock1_3 (bvnot $e358)))
(define-fun $e360 () (_ BitVec 1) (bvand (bvnot $e213) (bvnot $e277)))
(define-fun $e361 () (_ BitVec 1) (bvand $e9 (bvnot $e360)))
(define-fun $e362 () (_ BitVec 1) (bvand (bvnot $e318) (bvnot $e361)))
(define-fun $e363 () (_ BitVec 1) (bvand (bvnot $e256) (bvnot $e267)))
(define-fun $e364 () (_ BitVec 1) (bvand $e9 (bvnot $e278)))
(define-fun $e365 () (_ BitVec 1) (bvand (bvnot $e9) (bvnot $e363)))
(define-fun $e366 () (_ BitVec 1) (bvand (bvnot $e364) (bvnot $e365)))
(define-fun $e367 () (_ BitVec 1) (bvand $e237 (bvnot $e362)))
(define-fun $e368 () (_ BitVec 1) (bvand (bvnot $e237) (bvnot $e366)))
(define-fun $e369 () (_ BitVec 1) (bvand (bvnot $e367) (bvnot $e368)))
(define-fun $e370 () (_ BitVec 1) (bvand (bvnot $e6) $e369))
(define-fun $e371 () (_ BitVec 1) (bvand (bvnot sflashclock1_3) (bvnot $e370)))
(define-fun $e372 () (_ BitVec 1) (bvand (bvnot $e285) (bvnot $e371)))
(define-fun $e373 () (_ BitVec 1) (bvand $e237 (bvnot $e291)))
(define-fun $e374 () (_ BitVec 1) (bvand (bvnot $e240) $e288))
(define-fun $e375 () (_ BitVec 1) (bvand (bvnot $e290) (bvnot $e374)))
(define-fun $e376 () (_ BitVec 1) (bvand (bvnot $e237) (bvnot $e375)))
(define-fun $e377 () (_ BitVec 1) (bvand (bvnot $e373) (bvnot $e376)))
(define-fun $e378 () (_ BitVec 1) (bvand (bvnot $e6) $e377))
(define-fun $e379 () (_ BitVec 1) (bvand (bvnot sflashclock1_3) (bvnot $e378)))
(define-fun $e380 () (_ BitVec 1) (bvand (bvnot $e359) (bvnot $e379)))
(define-fun $e381 () (_ BitVec 1) (bvand $e3 (bvnot $e380)))
(define-fun $e382 () (_ BitVec 1) (bvand (bvnot $e3) (bvnot $e372)))
(define-fun $e383 () (_ BitVec 1) (bvand (bvnot $e381) (bvnot $e382)))
(define-fun $e384 () (_ BitVec 1) (bvand (bvnot $e9) (bvnot $e304)))
(define-fun $e385 () (_ BitVec 1) (bvand $e9 (bvnot $e303)))
(define-fun $e386 () (_ BitVec 1) (bvand (bvnot $e384) (bvnot $e385)))
(define-fun $e387 () (_ BitVec 1) (bvand $e12 (bvnot $e201)))
(define-fun $e388 () (_ BitVec 1) (bvand (bvnot $e251) (bvnot $e387)))
(define-fun $e389 () (_ BitVec 1) (bvand $e9 (bvnot $e388)))
(define-fun $e390 () (_ BitVec 1) (bvand $e237 (bvnot $e386)))
(define-fun $e391 () (_ BitVec 1) (bvand (bvnot $e273) (bvnot $e384)))
(define-fun $e392 () (_ BitVec 1) (bvand (bvnot $e237) (bvnot $e391)))
(define-fun $e393 () (_ BitVec 1) (bvand (bvnot $e311) (bvnot $e392)))
(define-fun $e394 () (_ BitVec 1) (bvand (bvnot $e6) $e393))
(define-fun $e395 () (_ BitVec 1) (bvand (bvnot $e271) (bvnot $e387)))
(define-fun $e396 () (_ BitVec 1) (bvand $e9 (bvnot $e395)))
(define-fun $e397 () (_ BitVec 1) (bvand (bvnot $e306) (bvnot $e396)))
(define-fun $e398 () (_ BitVec 1) (bvand (bvnot $e237) (bvnot $e397)))
(define-fun $e399 () (_ BitVec 1) (bvand (bvnot $e390) (bvnot $e398)))
(define-fun $e400 () (_ BitVec 1) (bvand (bvnot $e6) $e399))
(define-fun $e401 () (_ BitVec 1) (bvand sflashclock1_3 (bvnot $e394)))
(define-fun $e402 () (_ BitVec 1) (bvand (bvnot sflashclock1_3) (bvnot $e400)))
(define-fun $e403 () (_ BitVec 1) (bvand (bvnot $e401) (bvnot $e402)))
(define-fun $e404 () (_ BitVec 1) (bvand (bvnot $e9) (bvnot $e326)))
(define-fun $e405 () (_ BitVec 1) (bvand (bvnot $e350) (bvnot $e404)))
(define-fun $e406 () (_ BitVec 1) (bvand (bvnot $e237) (bvnot $e405)))
(define-fun $e407 () (_ BitVec 1) (bvand (bvnot $e327) (bvnot $e406)))
(define-fun $e408 () (_ BitVec 1) (bvand (bvnot $e6) $e407))
(define-fun $e409 () (_ BitVec 1) (bvand sflashclock1_3 (bvnot $e408)))
(define-fun $e410 () (_ BitVec 1) (bvand $e9 (bvnot $e334)))
(define-fun $e411 () (_ BitVec 1) (bvand (bvnot $e404) (bvnot $e410)))
(define-fun $e412 () (_ BitVec 1) (bvand $e237 (bvnot $e411)))
(define-fun $e413 () (_ BitVec 1) (bvand (bvnot $e335) (bvnot $e389)))
(define-fun $e414 () (_ BitVec 1) (bvand (bvnot $e237) (bvnot $e413)))
(define-fun $e415 () (_ BitVec 1) (bvand (bvnot $e412) (bvnot $e414)))
(define-fun $e416 () (_ BitVec 1) (bvand (bvnot $e6) $e415))
(define-fun $e417 () (_ BitVec 1) (bvand (bvnot sflashclock1_3) (bvnot $e416)))
(define-fun $e418 () (_ BitVec 1) (bvand (bvnot $e409) (bvnot $e417)))
(define-fun $e419 () (_ BitVec 1) (bvand $e3 (bvnot $e418)))
(define-fun $e420 () (_ BitVec 1) (bvand (bvnot $e3) (bvnot $e403)))
(define-fun $e421 () (_ BitVec 1) (bvand (bvnot $e419) (bvnot $e420)))
(define-fun $e422 () (_ BitVec 1) (bvand clk_3 (bvnot $e421)))
(define-fun $e423 () (_ BitVec 1) (bvand (bvnot clk_3) (bvnot $e383)))
(define-fun $e424 () (_ BitVec 1) (bvand (bvnot $e422) (bvnot $e423)))
(define-fun $e425 () (_ BitVec 1) (bvand rst_3 (bvnot $e424)))
(define-fun $e426 () (_ BitVec 1) (bvand (bvnot rst_3) (bvnot $e349)))
(assert (not (= (bvnot $e425) #b0)))
(assert (not (= (bvnot $e426) #b0)))
(check-sat)
(exit)
